RT is False
Default write of storage_offers_DA.csv just to have a file (but constraint should be inactive)
Reading model...
...model read.
creating competitive generators file...
...competitive generators recorded.
Loading data...
.. day-ahead data read.
Compiling instance...
...instance created.
Creating Offer Mitigation (model will solve as dispatch if TRUE)...
NOTE: storage offers will not be mitigated
...storage offer mitigation file created
Converting model to MPEC...
...converted
NOTE: initial MIP solve with only storage competitive to get feasible solution
Solving...

Welcome to IBM(R) ILOG(R) CPLEX(R) Interactive Optimizer 12.9.0.0
  with Simplex, Mixed Integer & Barrier Optimizers
5725-A06 5725-A29 5724-Y48 5724-Y49 5724-Y54 5724-Y55 5655-Y21
Copyright IBM Corp. 1988, 2019.  All Rights Reserved.

Type 'help' for a list of available commands.
Type 'help' followed by a command name for more
information on commands.

CPLEX> Logfile 'cplex.log' closed.
Logfile 'C:\Users\Luke\Desktop\test919\logs\tmp4vh0u8qs.cplex.log' open.
CPLEX> New value for parallel optimization mode: -1
CPLEX> New value for mixed integer optimality gap tolerance: 0.01
CPLEX> New value for integrality tolerance: 1e-09
CPLEX> New value for feasibility tolerance: 0.01
CPLEX> New value for deterministic time limit in ticks: 75000
CPLEX> Problem 'C:\Users\Luke\Desktop\test919\logs\tmp_p64cr1b.pyomo.lp' read.
Read time = 0.20 sec. (14.73 ticks)
CPLEX> Problem name         : C:\Users\Luke\Desktop\test919\logs\tmp_p64cr1b.pyomo.lp
Objective sense      : Maximize
Variables            :   53805  [Nneg: 1,  Box: 22000,  Free: 4464,
                                 Binary: 27340]
Objective nonzeros   :    8983
Linear constraints   :  123205  [Less: 41346,  Greater: 59096,  Equal: 22763]
  Nonzeros           :  291804
  RHS nonzeros       :   67494

Variables            : Min LB: -5000.000        Max UB: 1000000.       
Objective nonzeros   : Min   : 0.1000000        Max   : 722.0000       
Linear constraints   :
  Nonzeros           : Min   : 0.1000000        Max   : 1000000.       
  RHS nonzeros       : Min   : 0.1000000        Max   : 1000000.       
CPLEX> CPXPARAM_Parallel                                -1
CPXPARAM_Simplex_Tolerances_Feasibility          0.01
CPXPARAM_DetTimeLimit                            75000
CPXPARAM_MIP_Tolerances_MIPGap                   0.01
CPXPARAM_MIP_Tolerances_Integrality              1.0000000000000001e-09
Tried aggregator 3 times.
MIP Presolve eliminated 88764 rows and 19086 columns.
MIP Presolve added 3395 rows and 0 columns.
MIP Presolve modified 24766 coefficients.
Aggregator did 12969 substitutions.
Reduced MIP has 24867 rows, 21216 columns, and 70882 nonzeros.
Reduced MIP has 8368 binaries, 0 generals, 0 SOSs, and 0 indicators.
Presolve time = 0.25 sec. (176.73 ticks)
Probing fixed 385 vars, tightened 2798 bounds.
Probing time = 1.41 sec. (881.01 ticks)
Tried aggregator 2 times.
MIP Presolve eliminated 864 rows and 770 columns.
MIP Presolve modified 2195 coefficients.
Aggregator did 33 substitutions.
Reduced MIP has 23970 rows, 20413 columns, and 68285 nonzeros.
Reduced MIP has 7983 binaries, 0 generals, 0 SOSs, and 0 indicators.
Presolve time = 0.09 sec. (69.71 ticks)
Probing time = 0.02 sec. (15.94 ticks)
Clique table members: 6285.
MIP emphasis: balance optimality and feasibility.
MIP search method: dynamic search.
Parallel mode: opportunistic, using up to 24 threads.
Root relaxation solution time = 0.53 sec. (341.30 ticks)

        Nodes                                         Cuts/
   Node  Left     Objective  IInf  Best Integer    Best Bound    ItCnt     Gap

      0     0       13.2904  2063                     13.2904     7436         
*     0+    0                           11.6020       13.2904            14.55%
      0     0       13.2904   655       11.6020     Cuts: 705     7775   14.55%
      0     0       13.2720   281       11.6020     Cuts: 535     8189   14.39%

Repeating presolve.
Tried aggregator 3 times.
MIP Presolve eliminated 15450 rows and 12271 columns.
MIP Presolve modified 9503 coefficients.
Aggregator did 210 substitutions.
Reduced MIP has 8310 rows, 7932 columns, and 26315 nonzeros.
Reduced MIP has 2816 binaries, 0 generals, 0 SOSs, and 0 indicators.
Presolve time = 0.08 sec. (59.05 ticks)
Probing fixed 359 vars, tightened 30716 bounds.
Probing time = 0.05 sec. (37.35 ticks)
Cover probing fixed 0 vars, tightened 1678 bounds.
Tried aggregator 4 times.
MIP Presolve eliminated 4474 rows and 4353 columns.
MIP Presolve modified 655 coefficients.
Aggregator did 152 substitutions.
Reduced MIP has 3684 rows, 3427 columns, and 13749 nonzeros.
Reduced MIP has 1098 binaries, 0 generals, 0 SOSs, and 0 indicators.
Presolve time = 0.02 sec. (21.73 ticks)
Probing fixed 32 vars, tightened 2909 bounds.
Probing time = 0.02 sec. (9.90 ticks)
Tried aggregator 2 times.
MIP Presolve eliminated 76 rows and 67 columns.
MIP Presolve modified 94 coefficients.
Aggregator did 2 substitutions.
Reduced MIP has 3606 rows, 3357 columns, and 13479 nonzeros.
Reduced MIP has 1066 binaries, 0 generals, 0 SOSs, and 0 indicators.
Presolve time = 0.00 sec. (6.72 ticks)
Probing fixed 11 vars, tightened 1575 bounds.
Probing time = 0.00 sec. (5.41 ticks)
Tried aggregator 2 times.
MIP Presolve eliminated 41 rows and 41 columns.
MIP Presolve modified 32 coefficients.
Aggregator did 4 substitutions.
Reduced MIP has 3561 rows, 3312 columns, and 13282 nonzeros.
Reduced MIP has 1055 binaries, 0 generals, 0 SOSs, and 0 indicators.
Presolve time = 0.02 sec. (9.49 ticks)
Represolve time = 0.34 sec. (356.63 ticks)
Probing fixed 20 vars, tightened 1297 bounds.
Probing time = 0.00 sec. (4.55 ticks)
Clique table members: 1901.
MIP emphasis: balance optimality and feasibility.
MIP search method: dynamic search.
Parallel mode: opportunistic, using up to 24 threads.
Root relaxation solution time = 0.02 sec. (30.35 ticks)

        Nodes                                         Cuts/
   Node  Left     Objective  IInf  Best Integer    Best Bound    ItCnt     Gap

*     0+    0                           11.6020       13.2720            14.39%
      0     0       12.3960     6       11.6020       12.3960     9404    6.84%
      0     0        cutoff             11.6020                   9406     --- 
Elapsed time = 5.16 sec. (3687.90 ticks, tree = 0.01 MB, solutions = 1)

Clique cuts applied:  1
Implied bound cuts applied:  12
Flow cuts applied:  11
Mixed integer rounding cuts applied:  18
Gomory fractional cuts applied:  3

Root node processing (before b&c):
  Real time             =    5.17 sec. (3688.78 ticks)
Parallel b&c, 24 threads:
  Real time             =    0.00 sec. (0.00 ticks)
  Sync time (average)   =    0.00 sec.
  Wait time (average)   =    0.00 sec.
                          ------------
Total (root+branch&cut) =    5.17 sec. (3688.78 ticks)

Solution pool: 1 solution saved.

MIP - Integer optimal solution:  Objective =  1.1601954048e+01
Solution time =    5.17 sec.  Iterations = 9406  Nodes = 0
Deterministic time = 3688.94 ticks  (713.39 ticks/sec)

CPLEX> Incumbent solution written to file 'C:\Users\Luke\Desktop\test919\logs\tmpjimp1kqv.cplex.sol'.
CPLEX> NOTE: no warmstart specified for MIP iteration, default behavior is true
NOTE: resolving with all competitive generators using storage-only solution to warmstart
Solving...

Welcome to IBM(R) ILOG(R) CPLEX(R) Interactive Optimizer 12.9.0.0
  with Simplex, Mixed Integer & Barrier Optimizers
5725-A06 5725-A29 5724-Y48 5724-Y49 5724-Y54 5724-Y55 5655-Y21
Copyright IBM Corp. 1988, 2019.  All Rights Reserved.

Type 'help' for a list of available commands.
Type 'help' followed by a command name for more
information on commands.

CPLEX> Logfile 'cplex.log' closed.
Logfile 'C:\Users\Luke\Desktop\test919\logs\tmpzt09e4lw.cplex.log' open.
CPLEX> New value for parallel optimization mode: -1
CPLEX> New value for mixed integer optimality gap tolerance: 0.01
CPLEX> New value for integrality tolerance: 1e-09
CPLEX> New value for feasibility tolerance: 0.01
CPLEX> New value for deterministic time limit in ticks: 75000
CPLEX> Problem 'C:\Users\Luke\Desktop\test919\logs\tmp3cv_ta92.pyomo.lp' read.
Read time = 0.20 sec. (14.75 ticks)
CPLEX> MIP start file 'C:\Users\Luke\Desktop\test919\logs\tmpsol5ewhz.cplex.mst' read.
CPLEX> Problem name         : C:\Users\Luke\Desktop\test919\logs\tmp3cv_ta92.pyomo.lp
Objective sense      : Maximize
Variables            :   54525  [Nneg: 1,  Box: 22720,  Free: 4464,
                                 Binary: 27340]
Objective nonzeros   :    9703
Linear constraints   :  123205  [Less: 41346,  Greater: 59096,  Equal: 22763]
  Nonzeros           :  291804
  RHS nonzeros       :   67494

Variables            : Min LB: -5000.000        Max UB: 1000000.       
Objective nonzeros   : Min   : 0.1000000        Max   : 722.0000       
Linear constraints   :
  Nonzeros           : Min   : 0.1000000        Max   : 1000000.       
  RHS nonzeros       : Min   : 0.1000000        Max   : 1000000.       
CPLEX> CPXPARAM_Parallel                                -1
CPXPARAM_Simplex_Tolerances_Feasibility          0.01
CPXPARAM_DetTimeLimit                            75000
CPXPARAM_MIP_Tolerances_MIPGap                   0.01
CPXPARAM_MIP_Tolerances_Integrality              1.0000000000000001e-09
Warning:  No solution found from 1 MIP starts.
Retaining values of one MIP start for possible repair.
Tried aggregator 3 times.
MIP Presolve eliminated 88764 rows and 19806 columns.
MIP Presolve added 3395 rows and 0 columns.
MIP Presolve modified 24766 coefficients.
Aggregator did 12969 substitutions.
Reduced MIP has 24867 rows, 21216 columns, and 70882 nonzeros.
Reduced MIP has 8368 binaries, 0 generals, 0 SOSs, and 0 indicators.
Presolve time = 0.25 sec. (177.10 ticks)
Probing fixed 385 vars, tightened 2798 bounds.
Probing time = 1.31 sec. (881.01 ticks)
Tried aggregator 2 times.
MIP Presolve eliminated 864 rows and 770 columns.
MIP Presolve modified 2195 coefficients.
Aggregator did 33 substitutions.
Reduced MIP has 23970 rows, 20413 columns, and 68285 nonzeros.
Reduced MIP has 7983 binaries, 0 generals, 0 SOSs, and 0 indicators.
Presolve time = 0.09 sec. (69.71 ticks)
Probing time = 0.03 sec. (15.94 ticks)
Clique table members: 6285.
MIP emphasis: balance optimality and feasibility.
MIP search method: dynamic search.
Parallel mode: opportunistic, using up to 24 threads.
Root relaxation solution time = 0.53 sec. (341.30 ticks)

        Nodes                                         Cuts/
   Node  Left     Objective  IInf  Best Integer    Best Bound    ItCnt     Gap

      0     0       13.2904  2063                     13.2904     7436         
*     0+    0                           10.8284       13.2904            22.74%
      0     0       13.2904   655       10.8284     Cuts: 705     7775   22.74%
      0     0       13.2720   280       10.8284     Cuts: 572     8178   22.57%
Repair heuristic found nothing.

Repeating presolve.
Tried aggregator 3 times.
MIP Presolve eliminated 15292 rows and 12139 columns.
MIP Presolve modified 10051 coefficients.
Aggregator did 204 substitutions.
Reduced MIP has 8474 rows, 8069 columns, and 26921 nonzeros.
Reduced MIP has 2874 binaries, 0 generals, 0 SOSs, and 0 indicators.
Presolve time = 0.11 sec. (62.07 ticks)
Probing fixed 372 vars, tightened 35333 bounds.
Probing time = 0.06 sec. (42.08 ticks)
Cover probing fixed 0 vars, tightened 1630 bounds.
Tried aggregator 4 times.
MIP Presolve eliminated 4527 rows and 4395 columns.
MIP Presolve modified 706 coefficients.
Aggregator did 148 substitutions.
Reduced MIP has 3799 rows, 3526 columns, and 14217 nonzeros.
Reduced MIP has 1139 binaries, 0 generals, 0 SOSs, and 0 indicators.
Presolve time = 0.03 sec. (22.55 ticks)
Probing fixed 19 vars, tightened 2797 bounds.
Probing time = 0.02 sec. (9.67 ticks)
Tried aggregator 2 times.
MIP Presolve eliminated 56 rows and 53 columns.
MIP Presolve modified 53 coefficients.
Aggregator did 2 substitutions.
Reduced MIP has 3741 rows, 3471 columns, and 13988 nonzeros.
Reduced MIP has 1120 binaries, 0 generals, 0 SOSs, and 0 indicators.
Presolve time = 0.02 sec. (10.49 ticks)
Represolve time = 0.36 sec. (349.78 ticks)
Probing fixed 17 vars, tightened 1693 bounds.
Probing time = 0.02 sec. (5.72 ticks)
Clique table members: 2116.
MIP emphasis: balance optimality and feasibility.
MIP search method: dynamic search.
Parallel mode: opportunistic, using up to 24 threads.
Root relaxation solution time = 0.03 sec. (34.63 ticks)

        Nodes                                         Cuts/
   Node  Left     Objective  IInf  Best Integer    Best Bound    ItCnt     Gap

*     0+    0                           10.8284       13.2720            22.57%
      0     0       12.8008    13       10.8284       12.8008     9717   18.22%
      0     0       11.8220    46       10.8284       Cuts: 4     9793    9.18%
      0     0       11.6671    14       10.8284      Cuts: 17     9839    7.75%
      0     0       11.6478    10       10.8284       Cuts: 3     9844    7.57%
      0     0       11.6477    10       10.8284   Flowcuts: 3     9845    7.57%
*     0+    0                           11.6020       11.6477             0.39%

Implied bound cuts applied:  2
Flow cuts applied:  9
Mixed integer rounding cuts applied:  4
Gomory fractional cuts applied:  2

Root node processing (before b&c):
  Real time             =    5.31 sec. (3803.61 ticks)
Parallel b&c, 24 threads:
  Real time             =    0.00 sec. (0.00 ticks)
  Sync time (average)   =    0.00 sec.
  Wait time (average)   =    0.00 sec.
                          ------------
Total (root+branch&cut) =    5.31 sec. (3803.61 ticks)

Solution pool: 2 solutions saved.

MIP - Integer optimal, tolerance (0.01/1e-06):  Objective =  1.1601954046e+01
Current MIP best bound =  1.1605043364e+01 (gap = 0.00308932, 0.03%)
Solution time =    5.31 sec.  Iterations = 9845  Nodes = 0 (1)
Deterministic time = 3803.76 ticks  (716.07 ticks/sec)

CPLEX> Incumbent solution written to file 'C:\Users\Luke\Desktop\test919\logs\tmp76zzmyn8.cplex.sol'.
CPLEX> Exporting results... 
